solution status: time limit reached
objective value:                                23183
X$P2#9#12                                           1 	(obj:0)
X$P3#12#12                                          1 	(obj:0)
X$P6#12#9                                           1 	(obj:0)
X$P7#12#9                                           1 	(obj:0)
X$P10#12#9                                          1 	(obj:0)
X$P11#12#9                                          1 	(obj:0)
X$P14#12#9                                          1 	(obj:0)
X$P17#12#9                                          1 	(obj:0)
X$P18#4#12                                          1 	(obj:0)
X$P20#1#9                                           1 	(obj:0)
X$P21#12#9                                          1 	(obj:0)
X$P23#12#9                                          1 	(obj:0)
X$P28#12#9                                          1 	(obj:0)
X$P29#12#9                                          1 	(obj:0)
X$P34#12#9                                          1 	(obj:0)
X$P42#4#9                                           1 	(obj:0)
X$P46#12#9                                          1 	(obj:0)
X$P52#4#9                                           1 	(obj:0)
X$P53#1#9                                           1 	(obj:0)
X$P54#1#9                                           1 	(obj:0)
X$P55#4#9                                           1 	(obj:0)
X$P57#9#9                                           1 	(obj:0)
X$P58#4#9                                           1 	(obj:0)
X$P59#12#9                                          1 	(obj:0)
X$P61#1#12                                          1 	(obj:0)
X$P62#4#9                                           1 	(obj:0)
X$P63#12#9                                          1 	(obj:0)
X$P66#4#9                                           1 	(obj:0)
X$P68#1#9                                           1 	(obj:0)
X$P69#1#9                                           1 	(obj:0)
X$P70#4#9                                           1 	(obj:0)
X$P74#4#9                                           1 	(obj:0)
X$P76#12#9                                          1 	(obj:0)
X$P79#12#9                                          1 	(obj:0)
X$P85#4#9                                           1 	(obj:0)
X$P87#4#9                                           1 	(obj:0)
X$P89#9#9                                           1 	(obj:0)
X$P90#9#9                                           1 	(obj:0)
X$P91#12#9                                          1 	(obj:0)
X$P99#1#9                                           1 	(obj:0)
X$P100#9#9                                          1 	(obj:0)
X$P103#4#9                                          1 	(obj:0)
X$P104#9#9                                          1 	(obj:0)
X$P105#12#9                                         1 	(obj:0)
X$P106#12#9                                         1 	(obj:0)
X$P111#4#9                                          1 	(obj:0)
X$P115#4#9                                          1 	(obj:0)
X$P118#9#9                                          1 	(obj:0)
X$P124#9#9                                          1 	(obj:0)
X$P126#9#9                                          1 	(obj:0)
X$P130#4#9                                          1 	(obj:0)
X$P136#1#9                                          1 	(obj:0)
X$P138#12#9                                         1 	(obj:0)
X$P141#4#9                                          1 	(obj:0)
X$P149#9#9                                          1 	(obj:0)
X$P151#1#9                                          1 	(obj:0)
X$P155#9#12                                         1 	(obj:0)
X$P156#1#9                                          1 	(obj:0)
X$P157#4#9                                          1 	(obj:0)
X$P158#4#9                                          1 	(obj:0)
X$P159#1#9                                          1 	(obj:0)
X$P161#12#9                                         1 	(obj:0)
X$P162#1#9                                          1 	(obj:0)
X$P167#4#9                                          1 	(obj:0)
X$P169#1#9                                          1 	(obj:0)
X$P170#9#9                                          1 	(obj:0)
X$P171#9#9                                          1 	(obj:0)
X$P172#4#9                                          1 	(obj:0)
X$P173#4#9                                          1 	(obj:0)
X$P174#9#9                                          1 	(obj:0)
X$P177#1#9                                          1 	(obj:0)
X$P183#1#9                                          1 	(obj:0)
X$P184#1#9                                          1 	(obj:0)
X$P185#1#9                                          1 	(obj:0)
X$P186#1#9                                          1 	(obj:0)
X$P187#1#9                                          1 	(obj:0)
X$P188#1#9                                          1 	(obj:0)
X$P189#1#9                                          1 	(obj:0)
X$P190#1#9                                          1 	(obj:0)
X$P191#1#9                                          1 	(obj:0)
X$P192#4#9                                          1 	(obj:0)
X$P193#1#9                                          1 	(obj:0)
X$P194#4#9                                          1 	(obj:0)
X$P195#1#9                                          1 	(obj:0)
X$P196#9#9                                          1 	(obj:0)
X$P198#4#9                                          1 	(obj:0)
X$P200#1#9                                          1 	(obj:0)
X$P201#9#9                                          1 	(obj:0)
X$P202#4#9                                          1 	(obj:0)
X$P203#4#9                                          1 	(obj:0)
X$P204#4#9                                          1 	(obj:0)
X$P205#1#9                                          1 	(obj:0)
X$P206#9#9                                          1 	(obj:0)
X$P207#9#9                                          1 	(obj:0)
Z$P2$P157#9#4                                       1 	(obj:15)
Z$P2$P53#9#1                                        1 	(obj:16)
Z$P2$P63#9#12                                       1 	(obj:3)
Z$P2$P66#9#4                                        1 	(obj:5)
Z$P2$P151#9#1                                       1 	(obj:16)
Z$P2$P204#9#4                                       1 	(obj:5)
Z$P3$P57#12#9                                       1 	(obj:3)
Z$P3$P174#12#9                                      1 	(obj:6)
Z$P3$P183#12#1                                      1 	(obj:11)
Z$P3$P55#12#4                                       1 	(obj:8)
Z$P3$P62#12#4                                       1 	(obj:16)
Z$P3$P69#12#1                                       1 	(obj:11)
Z$P3$P162#12#1                                      1 	(obj:55)
Z$P3$P171#12#9                                      1 	(obj:15)
Z$P6$P198#12#4                                      1 	(obj:64)
Z$P6$P184#12#1                                      1 	(obj:22)
Z$P6$P186#12#1                                      1 	(obj:55)
Z$P6$P201#12#9                                      1 	(obj:9)
Z$P6$P20#12#1                                       1 	(obj:11)
Z$P6$P52#12#4                                       1 	(obj:8)
Z$P6$P74#12#4                                       1 	(obj:24)
Z$P6$P111#12#4                                      1 	(obj:8)
Z$P6$P118#12#9                                      1 	(obj:3)
Z$P7$P186#12#1                                      1 	(obj:913)
Z$P7$P204#12#4                                      1 	(obj:8)
Z$P7$P193#12#1                                      1 	(obj:352)
Z$P7$P207#12#9                                      1 	(obj:12)
Z$P10$P57#12#9                                      1 	(obj:6)
Z$P10$P172#12#4                                     1 	(obj:8)
Z$P10$P158#12#4                                     1 	(obj:8)
Z$P10$P177#12#1                                     1 	(obj:11)
Z$P11$P57#12#9                                      1 	(obj:3)
Z$P11$P124#12#9                                     1 	(obj:12)
Z$P11$P159#12#1                                     1 	(obj:11)
Z$P11$P174#12#9                                     1 	(obj:27)
Z$P11$P186#12#1                                     1 	(obj:11)
Z$P11$P18#12#4                                      1 	(obj:8)
Z$P11$P58#12#4                                      1 	(obj:16)
Z$P11$P193#12#1                                     1 	(obj:22)
Z$P11$P158#12#4                                     1 	(obj:8)
Z$P14$P62#12#4                                      1 	(obj:32)
Z$P14$P69#12#1                                      1 	(obj:22)
Z$P14$P85#12#4                                      1 	(obj:8)
Z$P14$P68#12#1                                      1 	(obj:55)
Z$P14$P126#12#9                                     1 	(obj:9)
Z$P14$P130#12#4                                     1 	(obj:24)
Z$P14$P187#12#1                                     1 	(obj:231)
Z$P14$P188#12#1                                     1 	(obj:286)
Z$P14$P189#12#1                                     1 	(obj:242)
Z$P14$P190#12#1                                     1 	(obj:165)
Z$P14$P191#12#1                                     1 	(obj:242)
Z$P14$P194#12#4                                     1 	(obj:840)
Z$P14$P196#12#9                                     1 	(obj:321)
Z$P14$P205#12#1                                     1 	(obj:33)
Z$P17$P57#12#9                                      1 	(obj:3)
Z$P17$P159#12#1                                     1 	(obj:11)
Z$P17$P174#12#9                                     1 	(obj:6)
Z$P17$P183#12#1                                     1 	(obj:11)
Z$P17$P66#12#4                                      1 	(obj:8)
Z$P17$P167#12#4                                     1 	(obj:8)
Z$P17$P193#12#1                                     1 	(obj:11)
Z$P17$P158#12#4                                     1 	(obj:24)
Z$P18$P124#4#9                                      1 	(obj:35)
Z$P18$P186#4#1                                      1 	(obj:6)
Z$P18$P193#4#1                                      1 	(obj:3)
Z$P20$P52#1#4                                       1 	(obj:3)
Z$P20$P74#1#4                                       1 	(obj:6)
Z$P21$P124#12#9                                     1 	(obj:51)
Z$P21$P186#12#1                                     1 	(obj:66)
Z$P21$P149#12#9                                     1 	(obj:6)
Z$P21$P104#12#9                                     1 	(obj:9)
Z$P21$P68#12#1                                      1 	(obj:11)
Z$P21$P190#12#1                                     1 	(obj:11)
Z$P21$P205#12#1                                     1 	(obj:22)
Z$P21$P42#12#4                                      1 	(obj:104)
Z$P21$P203#12#4                                     1 	(obj:56)
Z$P21$P206#12#9                                     1 	(obj:3)
Z$P23$P124#12#9                                     1 	(obj:69)
Z$P23$P186#12#1                                     1 	(obj:55)
Z$P23$P62#12#4                                      1 	(obj:8)
Z$P23$P111#12#4                                     1 	(obj:8)
Z$P23$P191#12#1                                     1 	(obj:11)
Z$P23$P194#12#4                                     1 	(obj:8)
Z$P23$P196#12#9                                     1 	(obj:3)
Z$P23$P205#12#1                                     1 	(obj:11)
Z$P23$P42#12#4                                      1 	(obj:128)
Z$P23$P206#12#9                                     1 	(obj:18)
Z$P28$P124#12#9                                     1 	(obj:102)
Z$P28$P183#12#1                                     1 	(obj:11)
Z$P28$P186#12#1                                     1 	(obj:110)
Z$P28$P149#12#9                                     1 	(obj:9)
Z$P28$P167#12#4                                     1 	(obj:16)
Z$P28$P193#12#1                                     1 	(obj:22)
Z$P28$P172#12#4                                     1 	(obj:8)
Z$P29$P124#12#9                                     1 	(obj:21)
Z$P29$P183#12#1                                     1 	(obj:11)
Z$P29$P186#12#1                                     1 	(obj:11)
Z$P29$P126#12#9                                     1 	(obj:3)
Z$P29$P130#12#4                                     1 	(obj:8)
Z$P29$P205#12#1                                     1 	(obj:44)
Z$P29$P203#12#4                                     1 	(obj:288)
Z$P34$P159#12#1                                     1 	(obj:11)
Z$P34$P198#12#4                                     1 	(obj:8)
Z$P34$P162#12#1                                     1 	(obj:55)
Z$P34$P171#12#9                                     1 	(obj:12)
Z$P34$P118#12#9                                     1 	(obj:24)
Z$P34$P155#12#9                                     1 	(obj:3)
Z$P34$P169#12#1                                     1 	(obj:44)
Z$P34$P173#12#4                                     1 	(obj:16)
Z$P34$P202#12#4                                     1 	(obj:40)
Z$P42$P126#4#9                                      1 	(obj:35)
Z$P42$P205#4#1                                      1 	(obj:105)
Z$P46$P61#12#1                                      1 	(obj:11)
Z$P46$P70#12#4                                      1 	(obj:56)
Z$P46$P186#12#1                                     1 	(obj:11)
Z$P46$P162#12#1                                     1 	(obj:11)
Z$P46$P52#12#4                                      1 	(obj:8)
Z$P46$P111#12#4                                     1 	(obj:8)
Z$P46$P170#12#9                                     1 	(obj:18)
Z$P52$P174#4#9                                      1 	(obj:5)
Z$P52$P54#4#1                                       1 	(obj:18)
Z$P52$P106#4#12                                     1 	(obj:8)
Z$P52$P89#4#9                                       1 	(obj:15)
Z$P53$P157#1#4                                      1 	(obj:3)
Z$P53$P66#1#4                                       1 	(obj:12)
Z$P53$P204#1#4                                      1 	(obj:3)
Z$P54$P157#1#4                                      1 	(obj:33)
Z$P54$P118#1#9                                      1 	(obj:8)
Z$P54$P104#1#9                                      1 	(obj:8)
Z$P54$P172#1#4                                      1 	(obj:3)
Z$P54$P106#1#12                                     1 	(obj:77)
Z$P54$P141#1#4                                      1 	(obj:6)
Z$P54$P89#1#9                                       1 	(obj:16)
Z$P55$P162#4#1                                      1 	(obj:3)
Z$P55$P171#4#9                                      1 	(obj:15)
Z$P57$P183#9#1                                      1 	(obj:24)
Z$P57$P158#9#4                                      1 	(obj:155)
Z$P57$P173#9#4                                      1 	(obj:5)
Z$P57$P105#9#12                                     1 	(obj:9)
Z$P58$P124#4#9                                      1 	(obj:5)
Z$P58$P174#4#9                                      1 	(obj:5)
Z$P58$P183#4#1                                      1 	(obj:3)
Z$P58$P162#4#1                                      1 	(obj:9)
Z$P58$P171#4#9                                      1 	(obj:15)
Z$P58$P149#4#9                                      1 	(obj:5)
Z$P58$P177#4#1                                      1 	(obj:3)
Z$P58$P105#4#12                                     1 	(obj:8)
Z$P59$P100#12#9                                     1 	(obj:75)
Z$P59$P103#12#4                                     1 	(obj:8)
Z$P59$P192#12#4                                     1 	(obj:8)
Z$P59$P205#12#1                                     1 	(obj:11)
Z$P59$P136#12#1                                     1 	(obj:33)
Z$P61$P90#1#9                                       1 	(obj:16)
Z$P61$P91#1#12                                      1 	(obj:44)
Z$P61$P201#1#9                                      1 	(obj:8)
Z$P61$P167#1#4                                      1 	(obj:3)
Z$P62$P68#4#1                                       1 	(obj:9)
Z$P62$P188#4#1                                      1 	(obj:6)
Z$P63$P159#12#1                                     1 	(obj:11)
Z$P63$P66#12#4                                      1 	(obj:352)
Z$P63$P151#12#1                                     1 	(obj:132)
Z$P63$P204#12#4                                     1 	(obj:8)
Z$P63$P207#12#9                                     1 	(obj:9)
Z$P66$P159#4#1                                      1 	(obj:3)
Z$P66$P151#4#1                                      1 	(obj:36)
Z$P66$P207#4#9                                      1 	(obj:15)
Z$P66$P200#4#1                                      1 	(obj:6)
Z$P68$P87#1#4                                       1 	(obj:12)
Z$P69$P85#1#4                                       1 	(obj:6)
Z$P69$P87#1#4                                       1 	(obj:21)
Z$P69$P170#1#9                                      1 	(obj:8)
Z$P70$P90#4#9                                       1 	(obj:190)
Z$P70$P91#4#12                                      1 	(obj:272)
Z$P70$P184#4#1                                      1 	(obj:6)
Z$P70$P170#4#9                                      1 	(obj:30)
Z$P74$P186#4#1                                      1 	(obj:3)
Z$P74$P201#4#9                                      1 	(obj:15)
Z$P74$P161#4#12                                     1 	(obj:8)
Z$P76$P103#12#4                                     1 	(obj:8)
Z$P76$P156#12#1                                     1 	(obj:22)
Z$P76$P185#12#1                                     1 	(obj:22)
Z$P76$P192#12#4                                     1 	(obj:200)
Z$P76$P195#12#1                                     1 	(obj:187)
Z$P76$P205#12#1                                     1 	(obj:55)
Z$P76$P203#12#4                                     1 	(obj:8)
Z$P76$P206#12#9                                     1 	(obj:3)
Z$P79$P204#12#4                                     1 	(obj:8)
Z$P79$P207#12#9                                     1 	(obj:3)
Z$P79$P200#12#1                                     1 	(obj:11)
Z$P87$P187#4#1                                      1 	(obj:3)
Z$P87$P189#4#1                                      1 	(obj:3)
Z$P87$P170#4#9                                      1 	(obj:5)
Z$P89$P106#9#12                                     1 	(obj:27)
Z$P89$P141#9#4                                      1 	(obj:30)
Z$P90$P91#9#12                                      1 	(obj:105)
Z$P90$P184#9#1                                      1 	(obj:48)
Z$P90$P173#9#4                                      1 	(obj:5)
Z$P91$P184#12#1                                     1 	(obj:33)
Z$P91$P99#12#1                                      1 	(obj:11)
Z$P99$P172#1#4                                      1 	(obj:3)
Z$P100$P103#9#4                                     1 	(obj:210)
Z$P100$P156#9#1                                     1 	(obj:80)
Z$P100$P192#9#4                                     1 	(obj:10)
Z$P100$P205#9#1                                     1 	(obj:48)
Z$P100$P136#9#1                                     1 	(obj:32)
Z$P103$P156#4#1                                     1 	(obj:27)
Z$P103$P185#4#1                                     1 	(obj:3)
Z$P103$P205#4#1                                     1 	(obj:3)
Z$P103$P136#4#1                                     1 	(obj:3)
Z$P104$P198#9#4                                     1 	(obj:10)
Z$P104$P184#9#1                                     1 	(obj:72)
Z$P104$P186#9#1                                     1 	(obj:8)
Z$P104$P111#9#4                                     1 	(obj:10)
Z$P104$P161#9#12                                    1 	(obj:6)
Z$P105$P183#12#1                                    1 	(obj:132)
Z$P105$P158#12#4                                    1 	(obj:8)
Z$P106$P157#12#4                                    1 	(obj:24)
Z$P106$P172#12#4                                    1 	(obj:8)
Z$P106$P141#12#4                                    1 	(obj:32)
Z$P111$P184#4#1                                     1 	(obj:6)
Z$P111$P186#4#1                                     1 	(obj:15)
Z$P111$P201#4#9                                     1 	(obj:45)
Z$P111$P161#4#12                                    1 	(obj:48)
Z$P115$P186#4#1                                     1 	(obj:312)
Z$P115$P193#4#1                                     1 	(obj:75)
Z$P115$P200#4#1                                     1 	(obj:3)
Z$P115$P138#4#12                                    1 	(obj:976)
Z$P118$P162#9#1                                     1 	(obj:8)
Z$P118$P172#9#4                                     1 	(obj:10)
Z$P118$P173#9#4                                     1 	(obj:5)
Z$P118$P202#9#4                                     1 	(obj:5)
Z$P124$P157#9#4                                     1 	(obj:5)
Z$P124$P159#9#1                                     1 	(obj:8)
Z$P124$P186#9#1                                     1 	(obj:136)
Z$P124$P167#9#4                                     1 	(obj:15)
Z$P124$P172#9#4                                     1 	(obj:5)
Z$P124$P158#9#4                                     1 	(obj:5)
Z$P126$P130#9#4                                     1 	(obj:645)
Z$P126$P194#9#4                                     1 	(obj:5)
Z$P126$P205#9#1                                     1 	(obj:64)
Z$P130$P196#4#9                                     1 	(obj:15)
Z$P130$P205#4#1                                     1 	(obj:15)
Z$P138$P186#12#1                                    1 	(obj:1144)
Z$P138$P204#12#4                                    1 	(obj:32)
Z$P138$P193#12#1                                    1 	(obj:253)
Z$P138$P207#12#9                                    1 	(obj:9)
Z$P149$P186#9#1                                     1 	(obj:2632)
Z$P149$P167#9#4                                     1 	(obj:45)
Z$P149$P193#9#1                                     1 	(obj:1216)
Z$P151$P204#1#4                                     1 	(obj:3)
Z$P151$P207#1#9                                     1 	(obj:24)
Z$P155$P169#9#1                                     1 	(obj:848)
Z$P155$P173#9#4                                     1 	(obj:560)
Z$P157$P159#4#1                                     1 	(obj:9)
Z$P157$P174#4#9                                     1 	(obj:15)
Z$P158$P174#4#9                                     1 	(obj:5)
Z$P158$P183#4#1                                     1 	(obj:15)
Z$P158$P186#4#1                                     1 	(obj:3)
Z$P158$P177#4#1                                     1 	(obj:3)
Z$P159$P174#1#9                                     1 	(obj:88)
Z$P159$P198#1#4                                     1 	(obj:3)
Z$P159$P172#1#4                                     1 	(obj:3)
Z$P161$P186#12#1                                    1 	(obj:33)
Z$P161$P201#12#9                                    1 	(obj:24)
Z$P162$P171#1#9                                     1 	(obj:464)
Z$P162$P202#1#4                                     1 	(obj:60)
Z$P167$P183#4#1                                     1 	(obj:3)
Z$P167$P186#4#1                                     1 	(obj:18)
Z$P167$P193#4#1                                     1 	(obj:45)
Z$P169$P173#1#4                                     1 	(obj:309)
Z$P170$P183#9#1                                     1 	(obj:8)
Z$P171$P202#9#4                                     1 	(obj:105)
Z$P172$P201#4#9                                     1 	(obj:5)
Z$P173$P184#4#1                                     1 	(obj:3)
Z$P177$P198#1#4                                     1 	(obj:3)
Z$P184$P198#1#4                                     1 	(obj:3)
Z$P184$P201#1#9                                     1 	(obj:32)
Z$P185$P192#1#4                                     1 	(obj:3)
Z$P186$P198#1#4                                     1 	(obj:15)
Z$P186$P201#1#9                                     1 	(obj:96)
Z$P186$P207#1#9                                     1 	(obj:32)
Z$P187$P194#1#4                                     1 	(obj:57)
Z$P187$P196#1#9                                     1 	(obj:168)
Z$P188$P194#1#4                                     1 	(obj:72)
Z$P188$P196#1#9                                     1 	(obj:200)
Z$P189$P194#1#4                                     1 	(obj:54)
Z$P189$P196#1#9                                     1 	(obj:152)
Z$P190$P194#1#4                                     1 	(obj:66)
Z$P190$P196#1#9                                     1 	(obj:168)
Z$P191$P194#1#4                                     1 	(obj:69)
Z$P191$P196#1#9                                     1 	(obj:184)
Z$P192$P195#4#1                                     1 	(obj:21)
Z$P192$P205#4#1                                     1 	(obj:9)
Z$P193$P198#1#4                                     1 	(obj:3)
Z$P194$P196#4#9                                     1 	(obj:565)
Z$P194$P205#4#1                                     1 	(obj:3)
Z$P195$P203#1#4                                     1 	(obj:3)
Z$P196$P205#9#1                                     1 	(obj:16)
Z$P198$P201#4#9                                     1 	(obj:5)
Z$P200$P204#1#4                                     1 	(obj:195)
Z$P200$P207#1#9                                     1 	(obj:520)
Z$P203$P205#4#1                                     1 	(obj:63)
Z$P203$P206#4#9                                     1 	(obj:5)
Z$P204$P207#4#9                                     1 	(obj:335)
Z$P205$P206#1#9                                     1 	(obj:16)